NAME: concorde91
TYPE: TSP
DIMENSION: 40 
EDGE_WEIGHT_TYPE: EUC_2D
NODE_COORD_SECTION
1 91 24
2 21 86
3 36 74
4 45 50
5 91 58
6 39 1
7 52 47
8 12 4
9 3 46
10 77 63
11 33 67
12 39 8
13 4 14
14 36 91
15 57 12
16 69 73
17 98 95
18 70 4
19 1 1
20 54 20
21 84 51
22 81 93
23 8 13
24 24 17
25 97 61
26 3 82
27 92 85
28 73 79
29 20 1
30 84 70
31 40 82
32 39 57
33 47 48
34 58 16
35 35 9
36 2 16
37 100 2
38 96 71
39 55 76
40 10 86
